% Generated FlatZinc statistics:
%%%mzn-stat: paths=0
%%%mzn-stat: flatIntVars=779
%%%mzn-stat: flatIntConstraints=951
%%%mzn-stat: method="maximize"
%%%mzn-stat: flatTime=4.54698
%%%mzn-stat-end

% scat**fab*pour*raca
% eale*gobo*arna*abac
% scab*ueys*nary*mabe
% earbash*cha*iamb***
% ***acanthocephalans
% bidden*aedes**cabal
% ule*dorp*sand**sego
% bibb*sial**eide*dab
% baal**blaes*tiar***
% adrenocorticotropic
% ***baba*daman**kana
% tab*bags**area*edge
% amia**ease*isba*ras
% larbo**kabab*oleine
% chordamesodermal***
% ***oaky*inn*eanling
% kapa*eoan*amps*odah
% alec*line*tala*pome
% bach*adds*ela**slee
Words weights = [3725, 276, 3334, 3440, 1116, 1618, 179, 3, 3720, 4424, 2844, 2544, 7646, 142, 1948, 5, 1614, 121, 1401, 1009, 1018, 3699, 3757, 346, 3823, 1159, 170, 240, 989, 4234, 3, 242, 2226, 2138, 938, 252, 164, 1142, 112, 1121, 2001, 818, 5150, 4786, 11395, 292, 2962, 453, 7644, 2144, 1192, 120, 2981, 86, 2418, 4127, 3298, 246, 29, 243, 3896, 3782, 1286, 4128, 489, 551, 4513, 108, 33, 80, 2290, 373, 754, 16876, 391, 77, 16, 637, 689, 11067, 683, 215, 3350, 21302, 6162, 8, 16752, 3690, 44, 1980, 2321, 22090, 1851, 269, 1130, 17795, 3846, 167, 718, 1214, 2646, 585, 10183, 7045, 7733, 7603, 198, 58, 581, 226, 78, 20234, 3594, 5176, 4, 7, 6697, 1962, 130, 2825, 4560, 2832, 9, 3903, 1421, 1557];
objective = 536;
----------
% scat**fab*pour*raca
% eale*gobo*arna*abac
% scab*ueys*nary*mabe
% earbash*cha*iamb***
% ***acanthocephalans
% bidden*aedes**cabal
% ule*dorp*sand**sego
% bibb*sial**eide*dab
% baal**blaes*tiar***
% adrenocorticotropic
% ***baba*daman**kana
% tab*bags**area*edge
% amia**ease*isba*ras
% larbo**kabab*oleine
% chordamesodermal***
% ***oaky*inn*eanling
% maya*eoan*amps*odah
% alec*line*tala*pome
% kaph*adds*ela**slee
Words weights = [3725, 276, 3334, 3440, 1116, 1618, 179, 3, 3720, 4424, 2844, 2544, 7646, 142, 1948, 5, 1614, 121, 1401, 1009, 1018, 3699, 3757, 346, 3823, 1159, 170, 240, 989, 4234, 3, 242, 2226, 2138, 938, 252, 164, 1142, 112, 1121, 2001, 818, 5150, 4786, 11395, 292, 2962, 453, 7644, 2609, 1192, 120, 2981, 86, 2418, 4127, 3298, 2145, 29, 243, 3896, 3782, 1286, 4128, 584, 551, 4513, 108, 33, 80, 2290, 373, 1110, 16876, 391, 77, 16, 637, 689, 11067, 683, 215, 3350, 21302, 6162, 8, 16752, 3690, 44, 1980, 2321, 22090, 1851, 269, 1130, 17795, 3846, 167, 718, 1214, 2646, 585, 10183, 7045, 7733, 7603, 198, 58, 581, 226, 78, 20234, 3594, 5176, 4, 7, 6697, 1962, 130, 2825, 4560, 2832, 9, 3903, 1421, 1557];
objective = 537;
----------
% scat**fab*pour*raca
% eale*gobo*arna*abac
% scab*ueys*nary*mabe
% earbash*cha*iamb***
% ***acanthocephalans
% bidden*aedes**cabal
% ule*dorp*sand**sego
% bibb*sial**eide*dab
% baal**blaes*tiar***
% adrenocorticotropic
% ***baba*daman**kana
% tab*bags**area*edge
% amia**ease*isba*ras
% larbo**kabab*oleine
% chordamesodermal***
% ***oaky*inn*eanling
% java*eoan*amps*odah
% alec*line*tala*pome
% bath*adds*ela**slee
Words weights = [3725, 276, 3334, 3440, 1116, 1618, 179, 3, 3720, 4424, 2844, 2544, 7646, 142, 1948, 5, 1614, 121, 1401, 1009, 1018, 3699, 3757, 346, 3823, 1159, 170, 240, 989, 4234, 3, 242, 2226, 2138, 938, 252, 164, 1142, 112, 1121, 2001, 818, 5150, 4786, 11395, 292, 2962, 453, 7644, 2036, 1192, 120, 2981, 86, 2418, 4127, 3298, 291, 29, 243, 3896, 3782, 1286, 4128, 463, 551, 4513, 108, 33, 80, 2290, 373, 1040, 16876, 391, 77, 16, 637, 689, 11067, 683, 215, 3350, 21302, 6162, 8, 16752, 3690, 44, 1980, 2321, 22090, 1851, 269, 1130, 17795, 3846, 167, 718, 1214, 2646, 585, 10183, 7045, 7733, 7603, 198, 58, 581, 226, 78, 20234, 3594, 5176, 4, 7, 6697, 1962, 130, 2825, 4560, 2832, 9, 3903, 1421, 1557];
objective = 538;
----------
% scat**fab*pour*raca
% eale*gobo*arna*abac
% scab*ueys*nary*mabe
% earbash*cha*iamb***
% ***acanthocephalans
% bidden*aedes**cabal
% ule*dorp*sand**sego
% bibb*sial**eide*dab
% baal**blaes*tiar***
% adrenocorticotropic
% ***baba*daman**kana
% tab*bags**area*edge
% amia**ease*isba*ras
% larbo**kabab*oleine
% chordamesodermal***
% ***oaky*inn*eanling
% java*eoan*amps*odah
% alec*line*tala*pome
% pegh*adds*ela**slee
Words weights = [3725, 276, 3334, 3440, 1116, 1618, 179, 3, 3720, 4424, 2844, 2544, 7646, 142, 1948, 5, 1614, 121, 1401, 1009, 1018, 3699, 3757, 346, 3823, 1159, 170, 240, 989, 4234, 3, 242, 2226, 2138, 938, 252, 164, 1142, 112, 1121, 2001, 818, 5150, 4786, 11395, 292, 2962, 453, 7644, 2036, 1192, 120, 2981, 86, 2418, 4127, 3298, 3179, 29, 243, 3896, 3782, 1286, 4128, 467, 551, 4513, 108, 35, 80, 2290, 373, 1039, 16876, 391, 77, 16, 637, 689, 11067, 683, 215, 3350, 21302, 6162, 8, 16752, 3690, 44, 1980, 2321, 22090, 1851, 269, 1130, 17795, 3846, 167, 718, 1214, 2646, 585, 10183, 7045, 7733, 7603, 198, 58, 581, 226, 78, 20234, 3594, 5176, 4, 7, 6697, 1962, 130, 2825, 4560, 2832, 9, 3903, 1421, 1557];
objective = 539;
----------
% scat**fab*pour*raca
% eale*gobo*arna*abac
% scab*ueys*nary*mabe
% earbash*cha*iamb***
% ***acanthocephalans
% bidden*aedes**cabal
% ule*dorp*sand**sego
% bibb*sial**eide*dab
% baal**blaes*tiar***
% adrenocorticotropic
% ***baba*daman**kana
% tab*bags**area*edge
% amia**ease*isba*ras
% larbo**kabab*oleine
% chordamesodermal***
% ***oaky*inn*eanling
% zupa*eoan*amps*odah
% alec*line*tala*pome
% pugh*adds*ela**slee
Words weights = [3725, 276, 3334, 3440, 1116, 1618, 179, 3, 3720, 4424, 2844, 2544, 7646, 142, 1948, 5, 1614, 121, 1401, 1009, 1018, 3699, 3757, 346, 3823, 1159, 170, 240, 989, 4234, 3, 242, 2226, 2138, 938, 252, 164, 1142, 112, 1121, 2001, 818, 5150, 4786, 11395, 292, 2962, 453, 7644, 4919, 1192, 120, 2981, 86, 2418, 4127, 3298, 3375, 29, 243, 3896, 3782, 1286, 4128, 1134, 551, 4513, 108, 1010, 80, 2290, 373, 756, 16876, 391, 77, 16, 637, 689, 11067, 683, 215, 3350, 21302, 6162, 8, 16752, 3690, 44, 1980, 2321, 22090, 1851, 269, 1130, 17795, 3846, 167, 718, 1214, 2646, 585, 10183, 7045, 7733, 7603, 198, 58, 581, 226, 78, 20234, 3594, 5176, 4, 7, 6697, 1962, 130, 2825, 4560, 2832, 9, 3903, 1421, 1557];
objective = 540;
----------
% scat**fab*pour*raca
% eale*gobo*arna*abac
% scab*ueys*nary*mabe
% earbash*cha*iamb***
% ***acanthocephalans
% bidden*aedes**cabal
% ule*dorp*sand**sego
% bibb*sial**eide*dab
% baal**blaes*tiar***
% adrenocorticotropic
% ***baba*daman**kana
% tab*bags**area*edge
% amia**ease*isba*ras
% larbo**kabab*oleine
% chordamesodermal***
% ***oaky*inn*eanling
% boba*eoan*amps*odah
% exec*line*tala*pome
% yodh*adds*ela**slee
Words weights = [3725, 276, 3334, 3440, 1116, 1618, 179, 3, 3720, 4424, 2844, 2544, 7646, 142, 1948, 5, 1614, 121, 1401, 1009, 1018, 3699, 3757, 346, 3823, 1159, 170, 240, 989, 4234, 3, 242, 2226, 2138, 938, 252, 164, 1142, 112, 1121, 2001, 818, 5150, 4786, 11395, 292, 2962, 453, 7644, 409, 1192, 120, 2981, 1238, 2418, 4127, 3298, 4831, 29, 243, 3896, 3782, 1286, 4128, 97, 551, 4513, 108, 737, 80, 2290, 373, 90, 16876, 391, 77, 16, 637, 689, 11067, 683, 215, 3350, 21302, 6162, 8, 16752, 3690, 44, 1980, 2321, 22090, 1851, 269, 1130, 17795, 3846, 167, 718, 1214, 2646, 585, 10183, 7045, 7733, 7603, 198, 58, 581, 226, 78, 20234, 3594, 5176, 4, 7, 6697, 1962, 130, 2825, 4560, 2832, 9, 3903, 1421, 1557];
objective = 541;
----------
% scat**fab*pour*raca
% eale*gobo*arna*abac
% scab*ueys*nary*mabe
% earbash*cha*iamb***
% ***acanthocephalans
% bidden*aedes**cabal
% ule*dorp*sand**sego
% bibb*sial**eide*dab
% baal**blaes*tiar***
% adrenocorticotropic
% ***baba*daman**kana
% tab*bags**area*edge
% amia**ease*isba*ras
% larbo**kabab*oleine
% chordamesodermal***
% ***oaky*inn*eanling
% zona*eoan*amps*odah
% exec*line*tala*pome
% koph*adds*ela**slee
Words weights = [3725, 276, 3334, 3440, 1116, 1618, 179, 3, 3720, 4424, 2844, 2544, 7646, 142, 1948, 5, 1614, 121, 1401, 1009, 1018, 3699, 3757, 346, 3823, 1159, 170, 240, 989, 4234, 3, 242, 2226, 2138, 938, 252, 164, 1142, 112, 1121, 2001, 818, 5150, 4786, 11395, 292, 2962, 453, 7644, 4911, 1192, 120, 2981, 1238, 2418, 4127, 3298, 2258, 29, 243, 3896, 3782, 1286, 4128, 1140, 551, 4513, 108, 737, 80, 2290, 373, 651, 16876, 391, 77, 16, 637, 689, 11067, 683, 215, 3350, 21302, 6162, 8, 16752, 3690, 44, 1980, 2321, 22090, 1851, 269, 1130, 17795, 3846, 167, 718, 1214, 2646, 585, 10183, 7045, 7733, 7603, 198, 58, 581, 226, 78, 20234, 3594, 5176, 4, 7, 6697, 1962, 130, 2825, 4560, 2832, 9, 3903, 1421, 1557];
objective = 548;
----------
% scat**fab*pour*raca
% eale*gobo*arna*abac
% scab*ueys*nary*mabe
% earbash*cha*iamb***
% ***acanthocephalans
% bidden*aedes**cabal
% ule*dorp*sand**sego
% bibb*sial**eide*dab
% baal**blaes*tiar***
% adrenocorticotropic
% ***baba*daman**kana
% tab*bags**area*edge
% amia**ease*isba*ras
% larbo**kabab*oleine
% chordamesodermal***
% ***oaky*inn*eanling
% izba*eoan*amps*odah
% choc*live*tala*pome
% koph*ados*ela**slee
Words weights = [3725, 276, 3334, 3440, 1116, 1618, 179, 3, 3720, 4424, 2844, 2544, 7646, 142, 1948, 5, 1614, 121, 1401, 1009, 1018, 3699, 3757, 346, 3823, 1159, 170, 240, 989, 4234, 3, 242, 2226, 2138, 938, 252, 164, 1142, 112, 1121, 2001, 818, 5150, 4786, 11395, 292, 2962, 453, 7644, 2012, 1192, 120, 2981, 648, 2439, 4127, 3298, 2258, 31, 243, 3896, 3782, 1286, 4128, 442, 551, 4513, 108, 1144, 80, 2290, 373, 113, 16876, 391, 77, 16, 637, 689, 11067, 683, 215, 3350, 21302, 6162, 8, 16752, 3690, 70, 1980, 2321, 22090, 1851, 269, 1130, 17795, 3846, 167, 718, 1214, 2646, 585, 10183, 7045, 7733, 7603, 198, 58, 581, 226, 78, 20234, 3594, 5176, 4, 7, 6697, 1962, 130, 2825, 4560, 2832, 9, 3903, 1421, 1557];
objective = 550;
----------
% scat**fab*pour*raca
% eale*gobo*arna*abac
% scab*ueys*nary*mabe
% earbash*cha*iamb***
% ***acanthocephalans
% bidden*aedes**cabal
% ule*dorp*sand**sego
% bibb*sial**eide*dab
% baal**blaes*tiar***
% adrenocorticotropic
% ***baba*daman**kana
% tab*bags**area*edge
% amia**ease*isba*ras
% larbo**kabab*oleine
% chordamesodermal***
% ***oaky*inn*eanling
% izba*koan*amps*odah
% choc*amie*tala*pome
% koph*sals*ela**slee
Words weights = [3725, 276, 3334, 3440, 1116, 1618, 179, 3, 3720, 4424, 2844, 2544, 7646, 142, 1948, 5, 1614, 121, 1401, 1009, 1018, 3699, 3757, 346, 3823, 1159, 170, 240, 989, 4234, 3, 242, 2226, 2138, 938, 252, 164, 1142, 112, 1121, 2001, 818, 5150, 4786, 11395, 292, 2962, 453, 7644, 2012, 2245, 120, 2981, 648, 114, 4127, 3298, 2258, 3694, 243, 3896, 3782, 1286, 4128, 442, 551, 4513, 108, 1144, 80, 2290, 373, 113, 16876, 391, 77, 16, 637, 689, 11067, 683, 218, 3350, 21302, 6163, 8, 16752, 3690, 25, 1980, 2321, 22090, 1851, 269, 1130, 17795, 3846, 167, 718, 1214, 2646, 585, 10183, 7045, 7733, 7603, 198, 58, 581, 226, 78, 20234, 3594, 5176, 4, 7, 6697, 1962, 130, 2825, 4560, 2832, 9, 3903, 1421, 1557];
objective = 552;
----------
% scat**fab*pour*raca
% eale*gobo*arna*abac
% scab*ueys*nary*mabe
% earbash*cha*iamb***
% ***acanthocephalans
% bidden*aedes**cabal
% ule*dorp*sand**sego
% bibb*sial**eide*dab
% baal**blaes*tiar***
% adrenocorticotropic
% ***baba*daman**kana
% tab*bags**area*edge
% amia**ease*isba*ras
% larbo**kabab*oleine
% chordamesodermal***
% ***oaky*inn*eanling
% izba*koan*amps*odah
% choc*apse*tala*pome
% koph*seps*ela**slee
Words weights = [3725, 276, 3334, 3440, 1116, 1618, 179, 3, 3720, 4424, 2844, 2544, 7646, 142, 1948, 5, 1614, 121, 1401, 1009, 1018, 3699, 3757, 346, 3823, 1159, 170, 240, 989, 4234, 3, 242, 2226, 2138, 938, 252, 164, 1142, 112, 1121, 2001, 818, 5150, 4786, 11395, 292, 2962, 453, 7644, 2012, 2245, 120, 2981, 648, 154, 4127, 3298, 2258, 3775, 243, 3896, 3782, 1286, 4128, 442, 551, 4513, 108, 1144, 80, 2290, 373, 113, 16876, 391, 77, 16, 637, 689, 11067, 683, 218, 3350, 21302, 6164, 8, 16752, 3690, 64, 1980, 2321, 22090, 1851, 269, 1130, 17795, 3846, 167, 718, 1214, 2646, 585, 10183, 7045, 7733, 7603, 198, 58, 581, 226, 78, 20234, 3594, 5176, 4, 7, 6697, 1962, 130, 2825, 4560, 2832, 9, 3903, 1421, 1557];
objective = 554;
----------
% scat**fab*pour*raca
% eale*gobo*arna*abac
% scab*ueys*nary*mabe
% earbash*cha*iamb***
% ***acanthocephalans
% bidden*aedes**cabal
% ule*dorp*sand**sego
% bibb*sial**eide*dab
% baal**blaes*tiar***
% adrenocorticotropic
% ***baba*daman**kana
% tab*bags**area*edge
% amia**ease*isba*ras
% larbo**kabab*oleine
% chordamesodermal***
% ***oaky*inn*eanling
% zhos*koan*amps*odah
% zari*amie*tala*pome
% zeta*sals*ela**slee
Words weights = [3725, 276, 3334, 3440, 1116, 1618, 179, 3, 3720, 4424, 2844, 2544, 7646, 142, 1948, 5, 1614, 121, 1401, 1009, 1018, 3699, 3757, 346, 3823, 1159, 170, 240, 989, 4234, 3, 242, 2226, 2138, 938, 252, 164, 1142, 112, 1121, 2001, 818, 5150, 4786, 11395, 292, 2962, 453, 7644, 4892, 2245, 120, 2981, 4876, 114, 4127, 3298, 4890, 3694, 243, 3896, 3782, 1286, 4128, 1154, 551, 4513, 108, 383, 80, 2290, 373, 724, 16876, 391, 79, 16, 637, 689, 11067, 683, 218, 3350, 21302, 6163, 8, 16752, 3690, 25, 1980, 2321, 22090, 1851, 269, 1130, 17795, 3846, 167, 718, 1214, 2646, 585, 10183, 7045, 7733, 7603, 198, 58, 581, 226, 78, 20234, 3594, 5176, 4, 7, 6697, 1962, 130, 2825, 4560, 2832, 9, 3903, 1421, 1557];
objective = 555;
----------
% scat**fab*pour*raca
% eale*gobo*arna*abac
% scab*ueys*nary*mabe
% earbash*cha*iamb***
% ***acanthocephalans
% bidden*aedes**cabal
% ule*dorp*sand**sego
% bibb*sial**eide*dab
% baal**blaes*tiar***
% adrenocorticotropic
% ***baba*daman**kana
% tab*bags**area*edge
% amia**ease*isba*ras
% larbo**kabab*oleine
% chordamesodermal***
% ***oaky*inn*eanling
% zhos*koan*amps*odah
% zari*apse*tala*pome
% zeta*seps*ela**slee
Words weights = [3725, 276, 3334, 3440, 1116, 1618, 179, 3, 3720, 4424, 2844, 2544, 7646, 142, 1948, 5, 1614, 121, 1401, 1009, 1018, 3699, 3757, 346, 3823, 1159, 170, 240, 989, 4234, 3, 242, 2226, 2138, 938, 252, 164, 1142, 112, 1121, 2001, 818, 5150, 4786, 11395, 292, 2962, 453, 7644, 4892, 2245, 120, 2981, 4876, 154, 4127, 3298, 4890, 3775, 243, 3896, 3782, 1286, 4128, 1154, 551, 4513, 108, 383, 80, 2290, 373, 724, 16876, 391, 79, 16, 637, 689, 11067, 683, 218, 3350, 21302, 6164, 8, 16752, 3690, 64, 1980, 2321, 22090, 1851, 269, 1130, 17795, 3846, 167, 718, 1214, 2646, 585, 10183, 7045, 7733, 7603, 198, 58, 581, 226, 78, 20234, 3594, 5176, 4, 7, 6697, 1962, 130, 2825, 4560, 2832, 9, 3903, 1421, 1557];
objective = 557;
----------
% scat**fab*pour*raca
% eale*gobo*arna*abac
% scab*ueys*nary*mabe
% earbash*cha*iamb***
% ***acanthocephalans
% bidden*aedes**cabal
% ule*dorp*sand**sego
% bibb*sial**eide*dab
% baal**blaes*tiar***
% adrenocorticotropic
% ***baba*daman**kana
% bag*bags**area*edge
% amia**ease*isba*ras
% narco**kabab*oleine
% chordamesodermal***
% ***oary*inn*eanling
% azon*roan*amps*odah
% mixy*amie*tala*pome
% azym*hams*ela**slee
Words weights = [3725, 276, 3334, 3440, 1116, 1618, 179, 3, 3720, 4424, 2844, 2544, 7646, 142, 1948, 5, 1614, 121, 1401, 1009, 1018, 3699, 3757, 346, 3823, 1159, 170, 240, 989, 4234, 3, 242, 2226, 2138, 81, 252, 164, 1142, 112, 1121, 2001, 818, 6219, 4786, 11395, 292, 2964, 453, 7644, 238, 3579, 120, 2981, 2703, 114, 4127, 3298, 239, 1746, 243, 3896, 3782, 1286, 267, 39, 551, 4513, 108, 1149, 80, 2290, 1581, 738, 16876, 391, 211, 16, 637, 689, 11067, 683, 488, 3350, 21302, 6163, 8, 16752, 3690, 26, 1980, 2321, 22090, 1851, 269, 1130, 17795, 3846, 167, 718, 1214, 2646, 585, 10183, 7045, 7733, 7603, 198, 58, 581, 226, 78, 20234, 3594, 5176, 4, 7, 6697, 1962, 130, 2825, 4560, 2832, 9, 3903, 1421, 1557];
objective = 558;
----------
% scat**fab*pour*raca
% eale*gobo*arna*abac
% scab*ueys*nary*mabe
% earbash*cha*iamb***
% ***acanthocephalans
% bidden*aedes**cabal
% ule*dorp*sand**sego
% bibb*sial**eide*dab
% baal**blaes*tiar***
% adrenocorticotropic
% ***baba*daman**kana
% bag*bags**area*edge
% amia**ease*isba*ras
% narco**kabab*oleine
% chordamesodermal***
% ***oaky*inn*eanling
% azon*koan*amps*odah
% mixy*amie*tala*pome
% azym*sals*ela**slee
Words weights = [3725, 276, 3334, 3440, 1116, 1618, 179, 3, 3720, 4424, 2844, 2544, 7646, 142, 1948, 5, 1614, 121, 1401, 1009, 1018, 3699, 3757, 346, 3823, 1159, 170, 240, 989, 4234, 3, 242, 2226, 2138, 81, 252, 164, 1142, 112, 1121, 2001, 818, 6219, 4786, 11395, 292, 2962, 453, 7644, 238, 2245, 120, 2981, 2703, 114, 4127, 3298, 239, 3694, 243, 3896, 3782, 1286, 267, 39, 551, 4513, 108, 1149, 80, 2290, 1581, 738, 16876, 391, 211, 16, 637, 689, 11067, 683, 218, 3350, 21302, 6163, 8, 16752, 3690, 25, 1980, 2321, 22090, 1851, 269, 1130, 17795, 3846, 167, 718, 1214, 2646, 585, 10183, 7045, 7733, 7603, 198, 58, 581, 226, 78, 20234, 3594, 5176, 4, 7, 6697, 1962, 130, 2825, 4560, 2832, 9, 3903, 1421, 1557];
objective = 561;
----------
% scat**fab*pour*raca
% eale*gobo*arna*abac
% scab*ueys*nary*mabe
% earbash*cha*iamb***
% ***acanthocephalans
% bidden*aedes**cabal
% ule*dorp*sand**sego
% bibb*sial**eide*dab
% baal**blaes*tiar***
% adrenocorticotropic
% ***baba*daman**kana
% mad*bags**area*edge
% amok**ease*isba*ras
% radio**kabab*oleine
% chordamesodermal***
% ***kata*inn*eanling
% azym*than*amps*odah
% mzee*aune*tala*pome
% azan*pays*ela**slee
Words weights = [3725, 276, 3334, 3440, 1116, 1618, 179, 3, 3720, 4424, 2844, 2544, 7646, 142, 1948, 5, 1614, 121, 1401, 1009, 1018, 3699, 3757, 346, 3823, 1159, 170, 240, 989, 4234, 3, 242, 2226, 2138, 582, 252, 164, 1142, 119, 1121, 2001, 818, 7507, 4786, 11395, 292, 2149, 453, 7644, 239, 4214, 120, 2981, 2817, 204, 4127, 3298, 237, 3159, 243, 3896, 3782, 1286, 2582, 39, 551, 4513, 108, 1154, 80, 2290, 984, 1107, 16876, 391, 13484, 16, 637, 689, 11067, 683, 554, 3350, 21302, 5608, 8, 16752, 3690, 49, 1980, 2321, 22090, 1851, 269, 1130, 17795, 3846, 167, 718, 1214, 2646, 585, 10183, 7045, 7733, 7603, 198, 58, 581, 226, 78, 20234, 3594, 5176, 4, 7, 6697, 1962, 130, 2825, 4560, 2832, 9, 3903, 1421, 1557];
objective = 562;
----------
% scat**fab*pour*raca
% eale*gobo*arna*abac
% scab*ueys*nary*mabe
% earbash*cha*iamb***
% ***acanthocephalans
% bidden*aedes**cabal
% ule*dorp*sand**sego
% bibb*sial**eide*dab
% baal**blaes*tiar***
% adrenocorticotropic
% ***baba*daman**kana
% mad*bags**area*edge
% amok**ease*isba*ras
% radio**kabab*oleine
% chordamesodermal***
% ***kaka*inn*eanling
% azym*khan*amps*odah
% mzee*aune*tala*pome
% azan*sass*ela**slee
Words weights = [3725, 276, 3334, 3440, 1116, 1618, 179, 3, 3720, 4424, 2844, 2544, 7646, 142, 1948, 5, 1614, 121, 1401, 1009, 1018, 3699, 3757, 346, 3823, 1159, 170, 240, 989, 4234, 3, 242, 2226, 2138, 582, 252, 164, 1142, 119, 1121, 2001, 818, 7507, 4786, 11395, 292, 2131, 453, 7644, 239, 2191, 120, 2981, 2817, 204, 4127, 3298, 237, 3712, 243, 3896, 3782, 1286, 2582, 39, 551, 4513, 108, 1154, 80, 2290, 984, 1107, 16876, 391, 13484, 16, 637, 689, 11067, 683, 218, 3350, 21302, 5608, 8, 16752, 3690, 46, 1980, 2321, 22090, 1851, 269, 1130, 17795, 3846, 167, 718, 1214, 2646, 585, 10183, 7045, 7733, 7603, 198, 58, 581, 226, 78, 20234, 3594, 5176, 4, 7, 6697, 1962, 130, 2825, 4560, 2832, 9, 3903, 1421, 1557];
objective = 565;
----------
% scat**fab*pour*raca
% eale*gobo*arna*abac
% scab*ueys*nary*mabe
% earbash*cha*iamb***
% ***acanthocephalans
% bidden*aedes**cabal
% ule*dorp*sand**sego
% bibb*sial**eide*dab
% baal**blaes*tiar***
% adrenocorticotropic
% ***baba*daman**kana
% mad*bags**area*edge
% amok**ease*isba*ras
% radio**kabab*oleine
% chordamesodermal***
% ***kaka*inn*eanling
% azym*khan*amps*odah
% mzee*aune*tala*pome
% azan*says*ela**slee
Words weights = [3725, 276, 3334, 3440, 1116, 1618, 179, 3, 3720, 4424, 2844, 2544, 7646, 142, 1948, 5, 1614, 121, 1401, 1009, 1018, 3699, 3757, 346, 3823, 1159, 170, 240, 989, 4234, 3, 242, 2226, 2138, 582, 252, 164, 1142, 119, 1121, 2001, 818, 7507, 4786, 11395, 292, 2131, 453, 7644, 239, 2191, 120, 2981, 2817, 204, 4127, 3298, 237, 3719, 243, 3896, 3782, 1286, 2582, 39, 551, 4513, 108, 1154, 80, 2290, 984, 1107, 16876, 391, 13484, 16, 637, 689, 11067, 683, 218, 3350, 21302, 5608, 8, 16752, 3690, 49, 1980, 2321, 22090, 1851, 269, 1130, 17795, 3846, 167, 718, 1214, 2646, 585, 10183, 7045, 7733, 7603, 198, 58, 581, 226, 78, 20234, 3594, 5176, 4, 7, 6697, 1962, 130, 2825, 4560, 2832, 9, 3903, 1421, 1557];
objective = 568;
----------
% scat**fab*pour*raca
% eale*gobo*arna*abac
% scab*ueys*nary*mabe
% earbash*cha*iamb***
% ***acanthocephalans
% bidden*aedes**cabal
% ule*dorp*sand**sego
% bibb*sial**eide*dab
% baal**blaes*tiar***
% adrenocorticotropic
% ***baba*daman**kana
% mak*bags**area*edge
% amok**ease*isba*ras
% ratio**kabab*oleine
% chordamesodermal***
% ***kaka*inn*eanling
% azym*khan*amps*odah
% mzee*aune*tala*pome
% azan*says*ela**slee
Words weights = [3725, 276, 3334, 3440, 1116, 1618, 179, 3, 3720, 4424, 2844, 2544, 7646, 142, 1948, 5, 1614, 121, 1401, 1009, 1018, 3699, 3757, 346, 3823, 1159, 170, 240, 989, 4234, 3, 242, 2226, 2138, 584, 252, 164, 1142, 119, 1121, 2001, 818, 7585, 4786, 11395, 292, 2131, 453, 7644, 239, 2191, 120, 2981, 2817, 204, 4127, 3298, 237, 3719, 243, 3896, 3782, 1286, 2582, 39, 551, 4513, 108, 1154, 80, 2290, 2264, 1107, 16876, 391, 13484, 16, 637, 689, 11067, 683, 218, 3350, 21302, 5608, 8, 16752, 3690, 49, 1980, 2321, 22090, 1851, 269, 1130, 17795, 3846, 167, 718, 1214, 2646, 585, 10183, 7045, 7733, 7603, 198, 58, 581, 226, 78, 20234, 3594, 5176, 4, 7, 6697, 1962, 130, 2825, 4560, 2832, 9, 3903, 1421, 1557];
objective = 570;
----------
%%%mzn-stat: initTime=0.589581
%%%mzn-stat: solveTime=55.6006
%%%mzn-stat: solutions=18
%%%mzn-stat: variables=849
%%%mzn-stat: propagators=880
%%%mzn-stat: propagations=16388979
%%%mzn-stat: nodes=399266
%%%mzn-stat: failures=199555
%%%mzn-stat: restarts=0
%%%mzn-stat: peakDepth=152
%%%mzn-stat-end
%%%mzn-stat: nSolutions=18
%%%mzn-stat-end
